p cnf 24 8
-24 -17 -7 -15 -4 -11 -10 -16 -6 -8 -2 -5 -14 -19 -13 -23 -9 -12 1 2 3 4 5 6 7 8 9 10 11 12 13 14 15 16 17 18 19 20 21 22 23 24 0
-4 8 9 4 0
-23 -16 -19 1 2 3 4 5 6 7 8 9 10 11 12 13 14 15 16 17 19 20 21 22 23 24 0
-10 -18 -7 1 2 4 5 6 7 8 9 10 11 12 15 16 18 19 20 21 23 24 0
-16 -24 -6 2 6 12 13 14 15 16 18 21 22 24 0
